\ LP format - for model browsing. Use MPS format to capture full model detail.
Minimize
  0 X48 + 0 X49 + 0 X50 + 0 X51 + 0 X229 + 0 X230 + 0 X231 + 0 X232 + 0 X233
   + 0 X234 + 0 X236 + 0 X237 + 0 X242 + 0 X243 + 0 X244 + 0 X245 + 0 X246
   + 0 X247 + 0 X252 + 0 X279 + 0 X280 + 0 X281 + 0 X282 + 0 X283 + 0 X284
   + 0 X289 + 0 X316 + 0 X317 + 0 X318 + 0 X319 + 0 X320 + 0 X321 + 0 X326
   + 0 X353 + 0 X354 + 0 X355 + 0 X356 + 0 X357 + 0 X358 + 0 X363 + X408
   + X409
Subject To
 C0: - X7 - X53 + X408 = 0
 C1: - X54 - X235 + X409 = 0
 C2: X7 - X8 - X9 >= 0
 C3: - X0 + X10 = -14
 C4: - X1 + X11 = -8
 C5: - X0 + 999999 X2 <= 999984
 C6: - X0 + 999999 X2 >= -14
 C7: - X0 - 999999 X3 >= -1.000012e+06
 C8: - X0 - 999999 X3 <= -14
 C9: - X1 - 999999 X4 >= -1.000006e+06
 C10: - X1 - 999999 X4 <= -8
 C11: - X1 + 999999 X5 <= 999990
 C12: - X1 + 999999 X5 >= -8
 C13: X6 - X16 - X25 - X34 - X43 >= -3
 C14: - 999999 X12 + X58 + X59 + X60 <= -1
 C15: - X12 + X58 + X59 + X60 >= -1
 C16: - 999999 X13 + X57 + X59 + X60 <= -2
 C17: - X13 + X57 + X59 + X60 >= -2
 C18: - 999999 X14 + X57 + X58 + X60 <= -2
 C19: - X14 + X57 + X58 + X60 >= -2
 C20: - 999999 X15 + X57 + X58 + X59 <= -1
 C21: - X15 + X57 + X58 + X59 >= -1
 C22: - X12 + X16 <= 0
 C23: - X13 + X16 <= 0
 C24: - X14 + X16 <= 0
 C25: - X15 + X16 <= 0
 C26: - X12 - X13 - X14 - X15 + X16 >= -3
 C27: X6 - X16 <= 0
 C28: X19 - X67 - X68 = 20
 C29: X20 - X69 - X70 = 14
 C30: 999999 X17 + X18 - X19 >= 0
 C31: - 999999 X17 + X18 - X19 <= 0
 C32: - 999999 X17 + X18 - X20 >= -999999
 C33: 999999 X17 + X18 - X20 <= 999999
 C34: X7 + 999999 X16 - X18 >= 0
 C35: - 999999 X21 + X95 + X96 + X97 <= -1
 C36: - X21 + X95 + X96 + X97 >= -1
 C37: - 999999 X22 + X94 + X96 + X97 <= -2
 C38: - X22 + X94 + X96 + X97 >= -2
 C39: - 999999 X23 + X94 + X95 + X97 <= -2
 C40: - X23 + X94 + X95 + X97 >= -2
 C41: - 999999 X24 + X94 + X95 + X96 <= -1
 C42: - X24 + X94 + X95 + X96 >= -1
 C43: - X21 + X25 <= 0
 C44: - X22 + X25 <= 0
 C45: - X23 + X25 <= 0
 C46: - X24 + X25 <= 0
 C47: - X21 - X22 - X23 - X24 + X25 >= -3
 C48: X6 - X25 <= 0
 C49: X28 - X104 - X105 = 14
 C50: X29 - X106 - X107 = 10
 C51: 999999 X26 + X27 - X28 >= 0
 C52: - 999999 X26 + X27 - X28 <= 0
 C53: - 999999 X26 + X27 - X29 >= -999999
 C54: 999999 X26 + X27 - X29 <= 999999
 C55: X7 + 999999 X25 - X27 >= 0
 C56: - 999999 X30 + X132 + X133 + X134 <= 0
 C57: - X30 + X132 + X133 + X134 >= 0
 C58: - 999999 X31 + X131 + X133 + X134 <= -1
 C59: - X31 + X131 + X133 + X134 >= -1
 C60: - 999999 X32 + X131 + X132 + X134 <= -1
 C61: - X32 + X131 + X132 + X134 >= -1
 C62: - 999999 X33 + X131 + X132 + X133 <= -1
 C63: - X33 + X131 + X132 + X133 >= -1
 C64: - X30 + X34 <= 0
 C65: - X31 + X34 <= 0
 C66: - X32 + X34 <= 0
 C67: - X33 + X34 <= 0
 C68: - X30 - X31 - X32 - X33 + X34 >= -3
 C69: X6 - X34 <= 0
 C70: X37 - X141 - X142 = 10
 C71: X38 - X143 - X144 = 6
 C72: 999999 X35 + X36 - X37 >= 0
 C73: - 999999 X35 + X36 - X37 <= 0
 C74: - 999999 X35 + X36 - X38 >= -999999
 C75: 999999 X35 + X36 - X38 <= 999999
 C76: X7 + 999999 X34 - X36 >= 0
 C77: - 999999 X39 + X169 + X170 + X171 <= 0
 C78: - X39 + X169 + X170 + X171 >= 0
 C79: - 999999 X40 + X168 + X170 + X171 <= -1
 C80: - X40 + X168 + X170 + X171 >= -1
 C81: - 999999 X41 + X168 + X169 + X171 <= -1
 C82: - X41 + X168 + X169 + X171 >= -1
 C83: - 999999 X42 + X168 + X169 + X170 <= -1
 C84: - X42 + X168 + X169 + X170 >= -1
 C85: - X39 + X43 <= 0
 C86: - X40 + X43 <= 0
 C87: - X41 + X43 <= 0
 C88: - X42 + X43 <= 0
 C89: - X39 - X40 - X41 - X42 + X43 >= -3
 C90: X6 - X43 <= 0
 C91: X46 - X178 - X179 = 6
 C92: X47 - X180 - X181 = 7
 C93: 999999 X44 + X45 - X46 >= 0
 C94: - 999999 X44 + X45 - X46 <= 0
 C95: - 999999 X44 + X45 - X47 >= -999999
 C96: 999999 X44 + X45 - X47 <= 999999
 C97: X7 + 999999 X43 - X45 >= 0
 C98: X53 - X55 - X56 >= 0
 C99: - X0 + X55 + X227 >= 0
 C100: X0 + X55 - X227 >= 0
 C101: - X1 + X56 + X228 >= 0
 C102: X1 + X56 - X228 >= 0
 C103: X52 - X65 - X102 - X139 - X176 >= -3
 C104: X58 + X59 + X60 - 999999 X61 + X238 + X240 + X241 <= 0
 C105: X58 + X59 + X60 - X61 + X238 + X240 + X241 >= 0
 C106: X57 + X59 + X60 - 999999 X62 + X239 + X240 + X241 <= 0
 C107: X57 + X59 + X60 - X62 + X239 + X240 + X241 >= 0
 C108: X57 + X58 + X60 - 999999 X63 + X238 + X239 + X240 <= 0
 C109: X57 + X58 + X60 - X63 + X238 + X239 + X240 >= 0
 C110: X57 + X58 + X59 - 999999 X64 + X238 + X239 + X241 <= 0
 C111: X57 + X58 + X59 - X64 + X238 + X239 + X241 >= 0
 C112: - X61 + X65 <= 0
 C113: - X62 + X65 <= 0
 C114: - X63 + X65 <= 0
 C115: - X64 + X65 <= 0
 C116: - X61 - X62 - X63 - X64 + X65 >= -3
 C117: X52 - X65 <= 0
 C118: 999999 X66 - X67 - X68 + X71 - X248 - X249 >= 0
 C119: - 999999 X66 - X67 - X68 + X71 - X248 - X249 <= 0
 C120: - 999999 X66 - X69 - X70 + X71 - X250 - X251 >= -999999
 C121: 999999 X66 - X69 - X70 + X71 - X250 - X251 <= 999999
 C122: X53 + 999999 X65 - X71 >= 0
 C123: X95 + X96 + X97 - 999999 X98 + X275 + X277 + X278 <= 0
 C124: X95 + X96 + X97 - X98 + X275 + X277 + X278 >= 0
 C125: X94 + X96 + X97 - 999999 X99 + X276 + X277 + X278 <= 0
 C126: X94 + X96 + X97 - X99 + X276 + X277 + X278 >= 0
 C127: X94 + X95 + X97 - 999999 X100 + X275 + X276 + X277 <= 0
 C128: X94 + X95 + X97 - X100 + X275 + X276 + X277 >= 0
 C129: X94 + X95 + X96 - 999999 X101 + X275 + X276 + X278 <= 0
 C130: X94 + X95 + X96 - X101 + X275 + X276 + X278 >= 0
 C131: - X98 + X102 <= 0
 C132: - X99 + X102 <= 0
 C133: - X100 + X102 <= 0
 C134: - X101 + X102 <= 0
 C135: - X98 - X99 - X100 - X101 + X102 >= -3
 C136: X52 - X102 <= 0
 C137: 999999 X103 - X104 - X105 + X108 - X285 - X286 >= 0
 C138: - 999999 X103 - X104 - X105 + X108 - X285 - X286 <= 0
 C139: - 999999 X103 - X106 - X107 + X108 - X287 - X288 >= -999999
 C140: 999999 X103 - X106 - X107 + X108 - X287 - X288 <= 999999
 C141: X53 + 999999 X102 - X108 >= 0
 C142: X132 + X133 + X134 - 999999 X135 + X312 + X314 + X315 <= 0
 C143: X132 + X133 + X134 - X135 + X312 + X314 + X315 >= 0
 C144: X131 + X133 + X134 - 999999 X136 + X313 + X314 + X315 <= 0
 C145: X131 + X133 + X134 - X136 + X313 + X314 + X315 >= 0
 C146: X131 + X132 + X134 - 999999 X137 + X312 + X313 + X314 <= 0
 C147: X131 + X132 + X134 - X137 + X312 + X313 + X314 >= 0
 C148: X131 + X132 + X133 - 999999 X138 + X312 + X313 + X315 <= 0
 C149: X131 + X132 + X133 - X138 + X312 + X313 + X315 >= 0
 C150: - X135 + X139 <= 0
 C151: - X136 + X139 <= 0
 C152: - X137 + X139 <= 0
 C153: - X138 + X139 <= 0
 C154: - X135 - X136 - X137 - X138 + X139 >= -3
 C155: X52 - X139 <= 0
 C156: 999999 X140 - X141 - X142 + X145 - X322 - X323 >= 0
 C157: - 999999 X140 - X141 - X142 + X145 - X322 - X323 <= 0
 C158: - 999999 X140 - X143 - X144 + X145 - X324 - X325 >= -999999
 C159: 999999 X140 - X143 - X144 + X145 - X324 - X325 <= 999999
 C160: X53 + 999999 X139 - X145 >= 0
 C161: X169 + X170 + X171 - 999999 X172 + X349 + X351 + X352 <= 0
 C162: X169 + X170 + X171 - X172 + X349 + X351 + X352 >= 0
 C163: X168 + X170 + X171 - 999999 X173 + X350 + X351 + X352 <= 0
 C164: X168 + X170 + X171 - X173 + X350 + X351 + X352 >= 0
 C165: X168 + X169 + X171 - 999999 X174 + X349 + X350 + X351 <= 0
 C166: X168 + X169 + X171 - X174 + X349 + X350 + X351 >= 0
 C167: X168 + X169 + X170 - 999999 X175 + X349 + X350 + X352 <= 0
 C168: X168 + X169 + X170 - X175 + X349 + X350 + X352 >= 0
 C169: - X172 + X176 <= 0
 C170: - X173 + X176 <= 0
 C171: - X174 + X176 <= 0
 C172: - X175 + X176 <= 0
 C173: - X172 - X173 - X174 - X175 + X176 >= -3
 C174: X52 - X176 <= 0
 C175: 999999 X177 - X178 - X179 + X182 - X359 - X360 >= 0
 C176: - 999999 X177 - X178 - X179 + X182 - X359 - X360 <= 0
 C177: - 999999 X177 - X180 - X181 + X182 - X361 - X362 >= -999999
 C178: 999999 X177 - X180 - X181 + X182 - X361 - X362 <= 999999
 C179: X53 + 999999 X176 - X182 >= 0
 C180: X210 + X221 = 1
 C181: X57 + X58 + X59 + X60 >= 1
 C182: X0 + 999999 X57 <= 1e+06
 C183: X0 + 999999 X57 >= 2
 C184: X0 - 999999 X58 >= -999994
 C185: X0 - 999999 X58 <= 4
 C186: X1 - 999999 X59 >= -999994
 C187: X1 - 999999 X59 <= 4
 C188: X1 + 999999 X60 <= 999998
 C189: X1 + 999999 X60 >= 0
 C190: X94 + X95 + X96 + X97 >= 1
 C191: X0 + 999999 X94 <= 1.000003e+06
 C192: X0 + 999999 X94 >= 5
 C193: X0 - 999999 X95 >= -999992
 C194: X0 - 999999 X95 <= 6
 C195: X1 - 999999 X96 >= -999992
 C196: X1 - 999999 X96 <= 6
 C197: X1 + 999999 X97 <= 1.000001e+06
 C198: X1 + 999999 X97 >= 3
 C199: X131 + X132 + X133 + X134 >= 1
 C200: X0 + 999999 X131 <= 1.000005e+06
 C201: X0 + 999999 X131 >= 7
 C202: X0 - 999999 X132 >= -999990
 C203: X0 - 999999 X132 <= 8
 C204: X1 - 999999 X133 >= -999990
 C205: X1 - 999999 X133 <= 8
 C206: X1 + 999999 X134 <= 1.000003e+06
 C207: X1 + 999999 X134 >= 5
 C208: X168 + X169 + X170 + X171 >= 1
 C209: X0 + 999999 X168 <= 1.000007e+06
 C210: X0 + 999999 X168 >= 9
 C211: X0 - 999999 X169 >= -999987
 C212: X0 - 999999 X169 <= 11
 C213: X1 - 999999 X170 >= -999986
 C214: X1 - 999999 X170 <= 12
 C215: X1 + 999999 X171 <= 1.000005e+06
 C216: X1 + 999999 X171 >= 7
 C217: - X0 + X72 = -2
 C218: - X1 + X73 = 0
 C219: - X0 + X74 = -4
 C220: - X1 + X75 = -4
 C221: - X0 + X109 = -5
 C222: - X1 + X110 = -3
 C223: - X0 + X111 = -6
 C224: - X1 + X112 = -6
 C225: - X0 + X146 = -7
 C226: - X1 + X147 = -5
 C227: - X0 + X148 = -8
 C228: - X1 + X149 = -8
 C229: - X0 + X183 = -9
 C230: - X1 + X184 = -7
 C231: - X0 + X185 = -11
 C232: - X1 + X186 = -12
 C233: X54 - 999999 X210 - X211 >= -999999
 C234: X54 + 999999 X210 - X211 <= 999999
 C235: X211 - X212 - X213 >= 0
 C236: - X0 + X214 = -1
 C237: - X1 + X215 = -2
 C238: - X0 + 999999 X205 <= 999997
 C239: - X0 + 999999 X205 >= -1
 C240: - X0 - 999999 X206 >= -999999
 C241: - X0 - 999999 X206 <= -1
 C242: - X1 - 999999 X207 >= -1e+06
 C243: - X1 - 999999 X207 <= -2
 C244: - X1 + 999999 X208 <= 999996
 C245: - X1 + 999999 X208 >= -2
 C246: - X80 - X117 - X154 - X191 + X209 >= -3
 C247: X58 + X59 + X60 - 999999 X76 <= -1
 C248: X58 + X59 + X60 - X76 >= -1
 C249: X57 + X59 + X60 - 999999 X77 <= 0
 C250: X57 + X59 + X60 - X77 >= 0
 C251: X57 + X58 + X60 - 999999 X78 <= -1
 C252: X57 + X58 + X60 - X78 >= -1
 C253: X57 + X58 + X59 - 999999 X79 <= -1
 C254: X57 + X58 + X59 - X79 >= -1
 C255: - X76 + X80 <= 0
 C256: - X77 + X80 <= 0
 C257: - X78 + X80 <= 0
 C258: - X79 + X80 <= 0
 C259: - X76 - X77 - X78 - X79 + X80 >= -3
 C260: - X80 + X209 <= 0
 C261: - X67 - X68 + X83 = 3
 C262: - X69 - X70 + X84 = 5
 C263: 999999 X81 + X82 - X83 >= 0
 C264: - 999999 X81 + X82 - X83 <= 0
 C265: - 999999 X81 + X82 - X84 >= -999999
 C266: 999999 X81 + X82 - X84 <= 999999
 C267: 999999 X80 - X82 + X211 >= 0
 C268: X95 + X96 + X97 - 999999 X113 <= -2
 C269: X95 + X96 + X97 - X113 >= -2
 C270: X94 + X96 + X97 - 999999 X114 <= -1
 C271: X94 + X96 + X97 - X114 >= -1
 C272: X94 + X95 + X97 - 999999 X115 <= -1
 C273: X94 + X95 + X97 - X115 >= -1
 C274: X94 + X95 + X96 - 999999 X116 <= -2
 C275: X94 + X95 + X96 - X116 >= -2
 C276: - X113 + X117 <= 0
 C277: - X114 + X117 <= 0
 C278: - X115 + X117 <= 0
 C279: - X116 + X117 <= 0
 C280: - X113 - X114 - X115 - X116 + X117 >= -3
 C281: - X117 + X209 <= 0
 C282: - X104 - X105 + X120 = 5
 C283: - X106 - X107 + X121 = 9
 C284: 999999 X118 + X119 - X120 >= 0
 C285: - 999999 X118 + X119 - X120 <= 0
 C286: - 999999 X118 + X119 - X121 >= -999999
 C287: 999999 X118 + X119 - X121 <= 999999
 C288: 999999 X117 - X119 + X211 >= 0
 C289: X132 + X133 + X134 - 999999 X150 <= -2
 C290: X132 + X133 + X134 - X150 >= -2
 C291: X131 + X133 + X134 - 999999 X151 <= -1
 C292: X131 + X133 + X134 - X151 >= -1
 C293: X131 + X132 + X134 - 999999 X152 <= -1
 C294: X131 + X132 + X134 - X152 >= -1
 C295: X131 + X132 + X133 - 999999 X153 <= -2
 C296: X131 + X132 + X133 - X153 >= -2
 C297: - X150 + X154 <= 0
 C298: - X151 + X154 <= 0
 C299: - X152 + X154 <= 0
 C300: - X153 + X154 <= 0
 C301: - X150 - X151 - X152 - X153 + X154 >= -3
 C302: - X154 + X209 <= 0
 C303: - X141 - X142 + X157 = 9
 C304: - X143 - X144 + X158 = 13
 C305: 999999 X155 + X156 - X157 >= 0
 C306: - 999999 X155 + X156 - X157 <= 0
 C307: - 999999 X155 + X156 - X158 >= -999999
 C308: 999999 X155 + X156 - X158 <= 999999
 C309: 999999 X154 - X156 + X211 >= 0
 C310: X169 + X170 + X171 - 999999 X187 <= -2
 C311: X169 + X170 + X171 - X187 >= -2
 C312: X168 + X170 + X171 - 999999 X188 <= -1
 C313: X168 + X170 + X171 - X188 >= -1
 C314: X168 + X169 + X171 - 999999 X189 <= -1
 C315: X168 + X169 + X171 - X189 >= -1
 C316: X168 + X169 + X170 - 999999 X190 <= -2
 C317: X168 + X169 + X170 - X190 >= -2
 C318: - X187 + X191 <= 0
 C319: - X188 + X191 <= 0
 C320: - X189 + X191 <= 0
 C321: - X190 + X191 <= 0
 C322: - X187 - X188 - X189 - X190 + X191 >= -3
 C323: - X191 + X209 <= 0
 C324: - X178 - X179 + X194 = 13
 C325: - X180 - X181 + X195 = 20
 C326: 999999 X192 + X193 - X194 >= 0
 C327: - 999999 X192 + X193 - X194 <= 0
 C328: - 999999 X192 + X193 - X195 >= -999999
 C329: 999999 X192 + X193 - X195 <= 999999
 C330: 999999 X191 - X193 + X211 >= 0
 C331: X54 - 999999 X221 - X222 >= -999999
 C332: X54 + 999999 X221 - X222 <= 999999
 C333: X222 - X223 - X224 >= 0
 C334: - X0 + X225 = -12
 C335: - X1 + X226 = -10
 C336: - X0 + 999999 X216 <= 999986
 C337: - X0 + 999999 X216 >= -12
 C338: - X0 - 999999 X217 >= -1.00001e+06
 C339: - X0 - 999999 X217 <= -12
 C340: - X1 - 999999 X218 >= -1.000008e+06
 C341: - X1 - 999999 X218 <= -10
 C342: - X1 + 999999 X219 <= 999988
 C343: - X1 + 999999 X219 >= -10
 C344: - X89 - X126 - X163 - X200 + X220 >= -3
 C345: X58 + X59 + X60 - 999999 X85 <= -1
 C346: X58 + X59 + X60 - X85 >= -1
 C347: X57 + X59 + X60 - 999999 X86 <= -2
 C348: X57 + X59 + X60 - X86 >= -2
 C349: X57 + X58 + X60 - 999999 X87 <= -2
 C350: X57 + X58 + X60 - X87 >= -2
 C351: X57 + X58 + X59 - 999999 X88 <= -1
 C352: X57 + X58 + X59 - X88 >= -1
 C353: - X85 + X89 <= 0
 C354: - X86 + X89 <= 0
 C355: - X87 + X89 <= 0
 C356: - X88 + X89 <= 0
 C357: - X85 - X86 - X87 - X88 + X89 >= -3
 C358: - X89 + X220 <= 0
 C359: - X67 - X68 + X92 = 20
 C360: - X69 - X70 + X93 = 14
 C361: 999999 X90 + X91 - X92 >= 0
 C362: - 999999 X90 + X91 - X92 <= 0
 C363: - 999999 X90 + X91 - X93 >= -999999
 C364: 999999 X90 + X91 - X93 <= 999999
 C365: 999999 X89 - X91 + X222 >= 0
 C366: X95 + X96 + X97 - 999999 X122 <= -1
 C367: X95 + X96 + X97 - X122 >= -1
 C368: X94 + X96 + X97 - 999999 X123 <= -2
 C369: X94 + X96 + X97 - X123 >= -2
 C370: X94 + X95 + X97 - 999999 X124 <= -2
 C371: X94 + X95 + X97 - X124 >= -2
 C372: X94 + X95 + X96 - 999999 X125 <= -1
 C373: X94 + X95 + X96 - X125 >= -1
 C374: - X122 + X126 <= 0
 C375: - X123 + X126 <= 0
 C376: - X124 + X126 <= 0
 C377: - X125 + X126 <= 0
 C378: - X122 - X123 - X124 - X125 + X126 >= -3
 C379: - X126 + X220 <= 0
 C380: - X104 - X105 + X129 = 14
 C381: - X106 - X107 + X130 = 10
 C382: 999999 X127 + X128 - X129 >= 0
 C383: - 999999 X127 + X128 - X129 <= 0
 C384: - 999999 X127 + X128 - X130 >= -999999
 C385: 999999 X127 + X128 - X130 <= 999999
 C386: 999999 X126 - X128 + X222 >= 0
 C387: X132 + X133 + X134 - 999999 X159 <= -1
 C388: X132 + X133 + X134 - X159 >= -1
 C389: X131 + X133 + X134 - 999999 X160 <= -2
 C390: X131 + X133 + X134 - X160 >= -2
 C391: X131 + X132 + X134 - 999999 X161 <= -2
 C392: X131 + X132 + X134 - X161 >= -2
 C393: X131 + X132 + X133 - 999999 X162 <= -1
 C394: X131 + X132 + X133 - X162 >= -1
 C395: - X159 + X163 <= 0
 C396: - X160 + X163 <= 0
 C397: - X161 + X163 <= 0
 C398: - X162 + X163 <= 0
 C399: - X159 - X160 - X161 - X162 + X163 >= -3
 C400: - X163 + X220 <= 0
 C401: - X141 - X142 + X166 = 10
 C402: - X143 - X144 + X167 = 6
 C403: 999999 X164 + X165 - X166 >= 0
 C404: - 999999 X164 + X165 - X166 <= 0
 C405: - 999999 X164 + X165 - X167 >= -999999
 C406: 999999 X164 + X165 - X167 <= 999999
 C407: 999999 X163 - X165 + X222 >= 0
 C408: X169 + X170 + X171 - 999999 X196 <= 0
 C409: X169 + X170 + X171 - X196 >= 0
 C410: X168 + X170 + X171 - 999999 X197 <= -1
 C411: X168 + X170 + X171 - X197 >= -1
 C412: X168 + X169 + X171 - 999999 X198 <= -1
 C413: X168 + X169 + X171 - X198 >= -1
 C414: X168 + X169 + X170 - 999999 X199 <= -1
 C415: X168 + X169 + X170 - X199 >= -1
 C416: - X196 + X200 <= 0
 C417: - X197 + X200 <= 0
 C418: - X198 + X200 <= 0
 C419: - X199 + X200 <= 0
 C420: - X196 - X197 - X198 - X199 + X200 >= -3
 C421: - X200 + X220 <= 0
 C422: - X178 - X179 + X203 = 6
 C423: - X180 - X181 + X204 = 3
 C424: 999999 X201 + X202 - X203 >= 0
 C425: - 999999 X201 + X202 - X203 <= 0
 C426: - 999999 X201 + X202 - X204 >= -999999
 C427: 999999 X201 + X202 - X204 <= 999999
 C428: 999999 X200 - X202 + X222 >= 0
 C429: X391 + X402 = 1
 C430: X238 + X239 + X240 + X241 >= 1
 C431: X227 + 999999 X238 <= 1e+06
 C432: X227 + 999999 X238 >= 2
 C433: X227 - 999999 X239 >= -999994
 C434: X227 - 999999 X239 <= 4
 C435: X228 - 999999 X240 >= -999994
 C436: X228 - 999999 X240 <= 4
 C437: X228 + 999999 X241 <= 999998
 C438: X228 + 999999 X241 >= 0
 C439: X275 + X276 + X277 + X278 >= 1
 C440: X227 + 999999 X275 <= 1.000003e+06
 C441: X227 + 999999 X275 >= 5
 C442: X227 - 999999 X276 >= -999992
 C443: X227 - 999999 X276 <= 6
 C444: X228 - 999999 X277 >= -999992
 C445: X228 - 999999 X277 <= 6
 C446: X228 + 999999 X278 <= 1.000001e+06
 C447: X228 + 999999 X278 >= 3
 C448: X312 + X313 + X314 + X315 >= 1
 C449: X227 + 999999 X312 <= 1.000005e+06
 C450: X227 + 999999 X312 >= 7
 C451: X227 - 999999 X313 >= -999990
 C452: X227 - 999999 X313 <= 8
 C453: X228 - 999999 X314 >= -999990
 C454: X228 - 999999 X314 <= 8
 C455: X228 + 999999 X315 <= 1.000003e+06
 C456: X228 + 999999 X315 >= 5
 C457: X349 + X350 + X351 + X352 >= 1
 C458: X227 + 999999 X349 <= 1.000007e+06
 C459: X227 + 999999 X349 >= 9
 C460: X227 - 999999 X350 >= -999987
 C461: X227 - 999999 X350 <= 11
 C462: X228 - 999999 X351 >= -999986
 C463: X228 - 999999 X351 <= 12
 C464: X228 + 999999 X352 <= 1.000005e+06
 C465: X228 + 999999 X352 >= 7
 C466: - X227 + X253 = -2
 C467: - X228 + X254 = 0
 C468: - X227 + X255 = -4
 C469: - X228 + X256 = -4
 C470: - X227 + X290 = -5
 C471: - X228 + X291 = -3
 C472: - X227 + X292 = -6
 C473: - X228 + X293 = -6
 C474: - X227 + X327 = -7
 C475: - X228 + X328 = -5
 C476: - X227 + X329 = -8
 C477: - X228 + X330 = -8
 C478: - X227 + X364 = -9
 C479: - X228 + X365 = -7
 C480: - X227 + X366 = -11
 C481: - X228 + X367 = -12
 C482: X235 - 999999 X391 - X392 >= -999999
 C483: X235 + 999999 X391 - X392 <= 999999
 C484: X392 - X393 - X394 >= 0
 C485: - X227 + X395 = -1
 C486: - X228 + X396 = -2
 C487: - X227 + 999999 X386 <= 999997
 C488: - X227 + 999999 X386 >= -1
 C489: - X227 - 999999 X387 >= -999999
 C490: - X227 - 999999 X387 <= -1
 C491: - X228 - 999999 X388 >= -1e+06
 C492: - X228 - 999999 X388 <= -2
 C493: - X228 + 999999 X389 <= 999996
 C494: - X228 + 999999 X389 >= -2
 C495: - X261 - X298 - X335 - X372 + X390 >= -3
 C496: X239 + X240 + X241 - 999999 X257 <= -1
 C497: X239 + X240 + X241 - X257 >= -1
 C498: X238 + X240 + X241 - 999999 X258 <= 0
 C499: X238 + X240 + X241 - X258 >= 0
 C500: X238 + X239 + X241 - 999999 X259 <= -1
 C501: X238 + X239 + X241 - X259 >= -1
 C502: X238 + X239 + X240 - 999999 X260 <= -1
 C503: X238 + X239 + X240 - X260 >= -1
 C504: - X257 + X261 <= 0
 C505: - X258 + X261 <= 0
 C506: - X259 + X261 <= 0
 C507: - X260 + X261 <= 0
 C508: - X257 - X258 - X259 - X260 + X261 >= -3
 C509: - X261 + X390 <= 0
 C510: - X248 - X249 + X264 = 3
 C511: - X250 - X251 + X265 = 5
 C512: 999999 X262 + X263 - X264 >= 0
 C513: - 999999 X262 + X263 - X264 <= 0
 C514: - 999999 X262 + X263 - X265 >= -999999
 C515: 999999 X262 + X263 - X265 <= 999999
 C516: 999999 X261 - X263 + X392 >= 0
 C517: X276 + X277 + X278 - 999999 X294 <= -2
 C518: X276 + X277 + X278 - X294 >= -2
 C519: X275 + X277 + X278 - 999999 X295 <= -1
 C520: X275 + X277 + X278 - X295 >= -1
 C521: X275 + X276 + X278 - 999999 X296 <= -1
 C522: X275 + X276 + X278 - X296 >= -1
 C523: X275 + X276 + X277 - 999999 X297 <= -2
 C524: X275 + X276 + X277 - X297 >= -2
 C525: - X294 + X298 <= 0
 C526: - X295 + X298 <= 0
 C527: - X296 + X298 <= 0
 C528: - X297 + X298 <= 0
 C529: - X294 - X295 - X296 - X297 + X298 >= -3
 C530: - X298 + X390 <= 0
 C531: - X285 - X286 + X301 = 5
 C532: - X287 - X288 + X302 = 9
 C533: 999999 X299 + X300 - X301 >= 0
 C534: - 999999 X299 + X300 - X301 <= 0
 C535: - 999999 X299 + X300 - X302 >= -999999
 C536: 999999 X299 + X300 - X302 <= 999999
 C537: 999999 X298 - X300 + X392 >= 0
 C538: X313 + X314 + X315 - 999999 X331 <= -2
 C539: X313 + X314 + X315 - X331 >= -2
 C540: X312 + X314 + X315 - 999999 X332 <= -1
 C541: X312 + X314 + X315 - X332 >= -1
 C542: X312 + X313 + X315 - 999999 X333 <= -1
 C543: X312 + X313 + X315 - X333 >= -1
 C544: X312 + X313 + X314 - 999999 X334 <= -2
 C545: X312 + X313 + X314 - X334 >= -2
 C546: - X331 + X335 <= 0
 C547: - X332 + X335 <= 0
 C548: - X333 + X335 <= 0
 C549: - X334 + X335 <= 0
 C550: - X331 - X332 - X333 - X334 + X335 >= -3
 C551: - X335 + X390 <= 0
 C552: - X322 - X323 + X338 = 9
 C553: - X324 - X325 + X339 = 13
 C554: 999999 X336 + X337 - X338 >= 0
 C555: - 999999 X336 + X337 - X338 <= 0
 C556: - 999999 X336 + X337 - X339 >= -999999
 C557: 999999 X336 + X337 - X339 <= 999999
 C558: 999999 X335 - X337 + X392 >= 0
 C559: X350 + X351 + X352 - 999999 X368 <= -2
 C560: X350 + X351 + X352 - X368 >= -2
 C561: X349 + X351 + X352 - 999999 X369 <= -1
 C562: X349 + X351 + X352 - X369 >= -1
 C563: X349 + X350 + X352 - 999999 X370 <= -1
 C564: X349 + X350 + X352 - X370 >= -1
 C565: X349 + X350 + X351 - 999999 X371 <= -2
 C566: X349 + X350 + X351 - X371 >= -2
 C567: - X368 + X372 <= 0
 C568: - X369 + X372 <= 0
 C569: - X370 + X372 <= 0
 C570: - X371 + X372 <= 0
 C571: - X368 - X369 - X370 - X371 + X372 >= -3
 C572: - X372 + X390 <= 0
 C573: - X359 - X360 + X375 = 13
 C574: - X361 - X362 + X376 = 20
 C575: 999999 X373 + X374 - X375 >= 0
 C576: - 999999 X373 + X374 - X375 <= 0
 C577: - 999999 X373 + X374 - X376 >= -999999
 C578: 999999 X373 + X374 - X376 <= 999999
 C579: 999999 X372 - X374 + X392 >= 0
 C580: X235 - 999999 X402 - X403 >= -999999
 C581: X235 + 999999 X402 - X403 <= 999999
 C582: X403 - X404 - X405 >= 0
 C583: - X227 + X406 = -12
 C584: - X228 + X407 = -10
 C585: - X227 + 999999 X397 <= 999986
 C586: - X227 + 999999 X397 >= -12
 C587: - X227 - 999999 X398 >= -1.00001e+06
 C588: - X227 - 999999 X398 <= -12
 C589: - X228 - 999999 X399 >= -1.000008e+06
 C590: - X228 - 999999 X399 <= -10
 C591: - X228 + 999999 X400 <= 999988
 C592: - X228 + 999999 X400 >= -10
 C593: - X270 - X307 - X344 - X381 + X401 >= -3
 C594: X239 + X240 + X241 - 999999 X266 <= -1
 C595: X239 + X240 + X241 - X266 >= -1
 C596: X238 + X240 + X241 - 999999 X267 <= -2
 C597: X238 + X240 + X241 - X267 >= -2
 C598: X238 + X239 + X241 - 999999 X268 <= -2
 C599: X238 + X239 + X241 - X268 >= -2
 C600: X238 + X239 + X240 - 999999 X269 <= -1
 C601: X238 + X239 + X240 - X269 >= -1
 C602: - X266 + X270 <= 0
 C603: - X267 + X270 <= 0
 C604: - X268 + X270 <= 0
 C605: - X269 + X270 <= 0
 C606: - X266 - X267 - X268 - X269 + X270 >= -3
 C607: - X270 + X401 <= 0
 C608: - X248 - X249 + X273 = 20
 C609: - X250 - X251 + X274 = 14
 C610: 999999 X271 + X272 - X273 >= 0
 C611: - 999999 X271 + X272 - X273 <= 0
 C612: - 999999 X271 + X272 - X274 >= -999999
 C613: 999999 X271 + X272 - X274 <= 999999
 C614: 999999 X270 - X272 + X403 >= 0
 C615: X276 + X277 + X278 - 999999 X303 <= -1
 C616: X276 + X277 + X278 - X303 >= -1
 C617: X275 + X277 + X278 - 999999 X304 <= -2
 C618: X275 + X277 + X278 - X304 >= -2
 C619: X275 + X276 + X278 - 999999 X305 <= -2
 C620: X275 + X276 + X278 - X305 >= -2
 C621: X275 + X276 + X277 - 999999 X306 <= -1
 C622: X275 + X276 + X277 - X306 >= -1
 C623: - X303 + X307 <= 0
 C624: - X304 + X307 <= 0
 C625: - X305 + X307 <= 0
 C626: - X306 + X307 <= 0
 C627: - X303 - X304 - X305 - X306 + X307 >= -3
 C628: - X307 + X401 <= 0
 C629: - X285 - X286 + X310 = 14
 C630: - X287 - X288 + X311 = 10
 C631: 999999 X308 + X309 - X310 >= 0
 C632: - 999999 X308 + X309 - X310 <= 0
 C633: - 999999 X308 + X309 - X311 >= -999999
 C634: 999999 X308 + X309 - X311 <= 999999
 C635: 999999 X307 - X309 + X403 >= 0
 C636: X313 + X314 + X315 - 999999 X340 <= -1
 C637: X313 + X314 + X315 - X340 >= -1
 C638: X312 + X314 + X315 - 999999 X341 <= -2
 C639: X312 + X314 + X315 - X341 >= -2
 C640: X312 + X313 + X315 - 999999 X342 <= -2
 C641: X312 + X313 + X315 - X342 >= -2
 C642: X312 + X313 + X314 - 999999 X343 <= -1
 C643: X312 + X313 + X314 - X343 >= -1
 C644: - X340 + X344 <= 0
 C645: - X341 + X344 <= 0
 C646: - X342 + X344 <= 0
 C647: - X343 + X344 <= 0
 C648: - X340 - X341 - X342 - X343 + X344 >= -3
 C649: - X344 + X401 <= 0
 C650: - X322 - X323 + X347 = 10
 C651: - X324 - X325 + X348 = 6
 C652: 999999 X345 + X346 - X347 >= 0
 C653: - 999999 X345 + X346 - X347 <= 0
 C654: - 999999 X345 + X346 - X348 >= -999999
 C655: 999999 X345 + X346 - X348 <= 999999
 C656: 999999 X344 - X346 + X403 >= 0
 C657: X350 + X351 + X352 - 999999 X377 <= 0
 C658: X350 + X351 + X352 - X377 >= 0
 C659: X349 + X351 + X352 - 999999 X378 <= -1
 C660: X349 + X351 + X352 - X378 >= -1
 C661: X349 + X350 + X352 - 999999 X379 <= -1
 C662: X349 + X350 + X352 - X379 >= -1
 C663: X349 + X350 + X351 - 999999 X380 <= -1
 C664: X349 + X350 + X351 - X380 >= -1
 C665: - X377 + X381 <= 0
 C666: - X378 + X381 <= 0
 C667: - X379 + X381 <= 0
 C668: - X380 + X381 <= 0
 C669: - X377 - X378 - X379 - X380 + X381 >= -3
 C670: - X381 + X401 <= 0
 C671: - X359 - X360 + X384 = 6
 C672: - X361 - X362 + X385 = 3
 C673: 999999 X382 + X383 - X384 >= 0
 C674: - 999999 X382 + X383 - X384 <= 0
 C675: - 999999 X382 + X383 - X385 >= -999999
 C676: 999999 X382 + X383 - X385 <= 999999
 C677: 999999 X381 - X383 + X403 >= 0
 C678: X210 + X391 = 1
 C679: X221 + X402 = 1
Bounds
 X0 <= 28
 X1 <= 24
 X7 <= 104
 X8 <= 104
 X9 <= 104
 X10 <= 104
 X11 <= 104
 X18 <= 104
 -104 <= X19 <= 104
 -104 <= X20 <= 104
 X27 <= 104
 -104 <= X28 <= 104
 -104 <= X29 <= 104
 X36 <= 104
 -104 <= X37 <= 104
 -104 <= X38 <= 104
 X45 <= 104
 -104 <= X46 <= 104
 -104 <= X47 <= 104
 X53 <= 104
 X54 <= 104
 X55 <= 104
 X56 <= 104
 X67 <= 104
 X68 <= 104
 X69 <= 104
 X70 <= 104
 X71 <= 104
 -104 <= X72 <= 104
 -104 <= X73 <= 104
 -104 <= X74 <= 104
 -104 <= X75 <= 104
 X82 <= 104
 X83 <= 104
 X84 <= 104
 X91 <= 104
 X92 <= 104
 X93 <= 104
 X104 <= 104
 X105 <= 104
 X106 <= 104
 X107 <= 104
 X108 <= 104
 -104 <= X109 <= 104
 -104 <= X110 <= 104
 -104 <= X111 <= 104
 -104 <= X112 <= 104
 X119 <= 104
 X120 <= 104
 X121 <= 104
 X128 <= 104
 X129 <= 104
 X130 <= 104
 X141 <= 104
 X142 <= 104
 X143 <= 104
 X144 <= 104
 X145 <= 104
 -104 <= X146 <= 104
 -104 <= X147 <= 104
 -104 <= X148 <= 104
 -104 <= X149 <= 104
 X156 <= 104
 X157 <= 104
 X158 <= 104
 X165 <= 104
 X166 <= 104
 X167 <= 104
 X178 <= 104
 X179 <= 104
 X180 <= 104
 X181 <= 104
 X182 <= 104
 -104 <= X183 <= 104
 -104 <= X184 <= 104
 -104 <= X185 <= 104
 -104 <= X186 <= 104
 X193 <= 104
 X194 <= 104
 X195 <= 104
 X202 <= 104
 X203 <= 104
 X204 <= 104
 X211 <= 104
 X212 <= 104
 X213 <= 104
 -104 <= X214 <= 104
 -104 <= X215 <= 104
 X222 <= 104
 X223 <= 104
 X224 <= 104
 -104 <= X225 <= 104
 -104 <= X226 <= 104
 X227 <= 28
 X228 <= 24
 X234 <= 104
 X235 <= 104
 X236 <= 104
 X237 <= 104
 X248 <= 104
 X249 <= 104
 X250 <= 104
 X251 <= 104
 X252 <= 104
 -104 <= X253 <= 104
 -104 <= X254 <= 104
 -104 <= X255 <= 104
 -104 <= X256 <= 104
 X263 <= 104
 X264 <= 104
 X265 <= 104
 X272 <= 104
 X273 <= 104
 X274 <= 104
 X285 <= 104
 X286 <= 104
 X287 <= 104
 X288 <= 104
 X289 <= 104
 -104 <= X290 <= 104
 -104 <= X291 <= 104
 -104 <= X292 <= 104
 -104 <= X293 <= 104
 X300 <= 104
 X301 <= 104
 X302 <= 104
 X309 <= 104
 X310 <= 104
 X311 <= 104
 X322 <= 104
 X323 <= 104
 X324 <= 104
 X325 <= 104
 X326 <= 104
 -104 <= X327 <= 104
 -104 <= X328 <= 104
 -104 <= X329 <= 104
 -104 <= X330 <= 104
 X337 <= 104
 X338 <= 104
 X339 <= 104
 X346 <= 104
 X347 <= 104
 X348 <= 104
 X359 <= 104
 X360 <= 104
 X361 <= 104
 X362 <= 104
 X363 <= 104
 -104 <= X364 <= 104
 -104 <= X365 <= 104
 -104 <= X366 <= 104
 -104 <= X367 <= 104
 X374 <= 104
 X375 <= 104
 X376 <= 104
 X383 <= 104
 X384 <= 104
 X385 <= 104
 X392 <= 104
 X393 <= 104
 X394 <= 104
 -104 <= X395 <= 104
 -104 <= X396 <= 104
 X403 <= 104
 X404 <= 104
 X405 <= 104
 -104 <= X406 <= 104
 -104 <= X407 <= 104
 X408 <= 999999
 X409 <= 999999
Binaries
 X2 X3 X4 X5 X6 X12 X13 X14 X15 X16 X17 X21 X22 X23 X24 X25 X26 X30 X31 X32
 X33 X34 X35 X39 X40 X41 X42 X43 X44 X48 X49 X50 X51 X52 X57 X58 X59 X60
 X61 X62 X63 X64 X65 X66 X76 X77 X78 X79 X80 X81 X85 X86 X87 X88 X89 X90
 X94 X95 X96 X97 X98 X99 X100 X101 X102 X103 X113 X114 X115 X116 X117 X118
 X122 X123 X124 X125 X126 X127 X131 X132 X133 X134 X135 X136 X137 X138 X139
 X140 X150 X151 X152 X153 X154 X155 X159 X160 X161 X162 X163 X164 X168 X169
 X170 X171 X172 X173 X174 X175 X176 X177 X187 X188 X189 X190 X191 X192 X196
 X197 X198 X199 X200 X201 X205 X206 X207 X208 X209 X210 X216 X217 X218 X219
 X220 X221 X229 X230 X231 X232 X233 X238 X239 X240 X241 X242 X243 X244 X245
 X246 X247 X257 X258 X259 X260 X261 X262 X266 X267 X268 X269 X270 X271 X275
 X276 X277 X278 X279 X280 X281 X282 X283 X284 X294 X295 X296 X297 X298 X299
 X303 X304 X305 X306 X307 X308 X312 X313 X314 X315 X316 X317 X318 X319 X320
 X321 X331 X332 X333 X334 X335 X336 X340 X341 X342 X343 X344 X345 X349 X350
 X351 X352 X353 X354 X355 X356 X357 X358 X368 X369 X370 X371 X372 X373 X377
 X378 X379 X380 X381 X382 X386 X387 X388 X389 X390 X391 X397 X398 X399 X400
 X401 X402
Generals
 X0 X1 X7 X8 X9 X10 X11 X18 X19 X20 X27 X28 X29 X36 X37 X38 X45 X46 X47 X53
 X54 X55 X56 X67 X68 X69 X70 X71 X72 X73 X74 X75 X82 X83 X84 X91 X92 X93
 X104 X105 X106 X107 X108 X109 X110 X111 X112 X119 X120 X121 X128 X129 X130
 X141 X142 X143 X144 X145 X146 X147 X148 X149 X156 X157 X158 X165 X166 X167
 X178 X179 X180 X181 X182 X183 X184 X185 X186 X193 X194 X195 X202 X203 X204
 X211 X212 X213 X214 X215 X222 X223 X224 X225 X226 X227 X228 X234 X235 X236
 X237 X248 X249 X250 X251 X252 X253 X254 X255 X256 X263 X264 X265 X272 X273
 X274 X285 X286 X287 X288 X289 X290 X291 X292 X293 X300 X301 X302 X309 X310
 X311 X322 X323 X324 X325 X326 X327 X328 X329 X330 X337 X338 X339 X346 X347
 X348 X359 X360 X361 X362 X363 X364 X365 X366 X367 X374 X375 X376 X383 X384
 X385 X392 X393 X394 X395 X396 X403 X404 X405 X406 X407 X408 X409
General Constraints
 _abs_v_1.x_-_ms.x: X8 = ABS ( X10 )
 _abs_v_1.y_-_ms.y: X9 = ABS ( X11 )
 vo^LL_i.x: X67 = ABS ( X72 )
 vo^LL_i.y: X68 = ABS ( X73 )
 vo^UR_i.x: X69 = ABS ( X74 )
 vo^LL_i.y: X70 = ABS ( X75 )
 vo^LL_i.x: X104 = ABS ( X109 )
 vo^LL_i.y: X105 = ABS ( X110 )
 vo^UR_i.x: X106 = ABS ( X111 )
 vo^LL_i.y: X107 = ABS ( X112 )
 vo^LL_i.x: X141 = ABS ( X146 )
 vo^LL_i.y: X142 = ABS ( X147 )
 vo^UR_i.x: X143 = ABS ( X148 )
 vo^LL_i.y: X144 = ABS ( X149 )
 vo^LL_i.x: X178 = ABS ( X183 )
 vo^LL_i.y: X179 = ABS ( X184 )
 vo^UR_i.x: X180 = ABS ( X185 )
 vo^LL_i.y: X181 = ABS ( X186 )
 abs_v_s_x: X212 = ABS ( X214 )
 abs_v_s_y: X213 = ABS ( X215 )
 abs_v_s_x: X223 = ABS ( X225 )
 abs_v_s_y: X224 = ABS ( X226 )
 vo^LL_i.x: X248 = ABS ( X253 )
 vo^LL_i.y: X249 = ABS ( X254 )
 vo^UR_i.x: X250 = ABS ( X255 )
 vo^LL_i.y: X251 = ABS ( X256 )
 vo^LL_i.x: X285 = ABS ( X290 )
 vo^LL_i.y: X286 = ABS ( X291 )
 vo^UR_i.x: X287 = ABS ( X292 )
 vo^LL_i.y: X288 = ABS ( X293 )
 vo^LL_i.x: X322 = ABS ( X327 )
 vo^LL_i.y: X323 = ABS ( X328 )
 vo^UR_i.x: X324 = ABS ( X329 )
 vo^LL_i.y: X325 = ABS ( X330 )
 vo^LL_i.x: X359 = ABS ( X364 )
 vo^LL_i.y: X360 = ABS ( X365 )
 vo^UR_i.x: X361 = ABS ( X366 )
 vo^LL_i.y: X362 = ABS ( X367 )
 abs_v_s_x: X393 = ABS ( X395 )
 abs_v_s_y: X394 = ABS ( X396 )
 abs_v_s_x: X404 = ABS ( X406 )
 abs_v_s_y: X405 = ABS ( X407 )
End
